Route #1: 22 46 50 3 40 32
Route #2: 6 56
Route #3: 31 55 9 28 18 27 1
Route #4: 10 17 45 24 52 54 43
Route #5: 4 30 49 35 48 38 12
Route #6: 14 34 19 39 26 13
Route #7: 7 20 2 23 16 44 42
Route #8: 53 29 41 21 36 47 5
Route #9: 33 11 37 51 25 15 8
Cost 1598
Time 0.507012
Tempo = 0.5213883999967948